NAME : AA60.2140672.tour
COMMENT : Cost = 0_2140672
COMMENT : Found by LKH [Keld Helsgaun] Sun Apr 23 15:14:35 2017
TYPE : TOUR
DIMENSION : 124
TOUR_SECTION
1
50
48
110
108
41
101
59
119
45
105
36
96
23
83
57
117
46
106
33
39
93
99
30
28
90
88
123
54
114
18
78
25
85
55
115
58
118
37
97
35
95
40
100
53
113
7
67
6
66
42
102
8
68
3
63
47
107
122
31
91
17
77
15
75
32
2
92
12
72
43
62
24
84
103
27
87
29
89
26
44
86
104
22
82
49
109
34
94
52
112
124
10
70
13
73
11
71
60
120
61
121
4
64
51
111
19
79
56
116
20
9
80
69
14
74
16
76
21
5
65
81
38
98
-1
EOF
